NAME : rnd17_20.tsp
TYPE : TSP
DIMENSION : 20
EDGE_WEIGHT_TYPE : EUC_2D
NODE_COORD_SECTION
1 916 418
2 99 992
3 540 791
4 519 795
5 115 98
6 836 290
7 348 328
8 485 952
9 283 114
10 64 795
11 470 492
12 858 699
13 802 410
14 402 129
15 47 370
16 547 865
17 478 254
18 985 274
19 836 867
20 231 890
